
Log started (V12.6.1.0) Tue Feb 06 17:44:57 2018

New value for time limit in seconds: 10800
New value for default parallel thread count: 1
Tried aggregator 3 times.
MIP Presolve eliminated 18122 rows and 1298 columns.
MIP Presolve modified 163 coefficients.
Aggregator did 31 substitutions.
Reduced MIP has 3765 rows, 17568 columns, and 106682 nonzeros.
Reduced MIP has 17370 binaries, 198 generals, 0 SOSs, and 0 indicators.
Presolve time = 0.36 sec. (108.33 ticks)
Probing time = 0.01 sec. (6.81 ticks)
Tried aggregator 1 time.
Reduced MIP has 3765 rows, 17568 columns, and 106682 nonzeros.
Reduced MIP has 17370 binaries, 198 generals, 0 SOSs, and 0 indicators.
Presolve time = 0.06 sec. (47.40 ticks)
Probing time = 0.00 sec. (5.90 ticks)
Clique table members: 46947.
MIP emphasis: balance optimality and feasibility.
MIP search method: dynamic search.
Parallel mode: none, using 1 thread.
Root relaxation solution time = 1.70 sec. (1344.08 ticks)

        Nodes                                         Cuts/
   Node  Left     Objective  IInf  Best Integer    Best Bound    ItCnt     Gap

      0     0       81.0000   752                     81.0000     5359         
      0     0      111.0000   485                    Cuts: 16     7593         
      0     0      143.2222   557                    Cuts: 62     8850         
      0     0      143.2222   533                    Cuts: 31     9937         
      0     0      143.2222   557                    Cuts: 20    10844         
      0     0      143.2222   176                 ZeroHalf: 1    10845         
      0     0      143.2222   281                    Cuts: 43    11903         
*     0+    0                          313.0000      143.2222            54.24%
      0     2      143.2222   169      313.0000      143.2222    11903   54.24%
Elapsed time = 61.80 sec. (18167.96 ticks, tree = 0.00 MB, solutions = 1)
      1     3      143.2222   233      313.0000      143.2222    14244   54.24%
      2     4      143.2222   215      313.0000      143.2222    15196   54.24%
      3     5      143.2222   304      313.0000      143.2222    16320   54.24%
      4     6      179.3333   210      313.0000      143.2222    19435   54.24%
      6     8      143.2222   279      313.0000      143.2222    23708   54.24%
      8    10      143.3889   226      313.0000      143.2222    24471   54.24%
     11    13      143.2222   208      313.0000      143.2222    29015   54.24%
     13    15      143.2222   190      313.0000      143.2222    31856   54.24%
     16    18      143.2222   188      313.0000      143.2222    32962   54.24%
     23    25      143.2222   180      313.0000      143.2222    39891   54.24%
Elapsed time = 82.22 sec. (24073.00 ticks, tree = 0.80 MB, solutions = 1)
*    30+   30                          226.0000      143.2222            36.63%
     30    32      143.2222   226      226.0000      143.2222    50988   36.63%
     36    38      143.2222   217      226.0000      143.2222    57921   36.63%
     43    45      143.2222   189      226.0000      143.2222    69879   36.63%
     54    56      143.4806   221      226.0000      143.2222    81624   36.63%
     69    71      143.8403   278      226.0000      143.2222    92992   36.63%
     88    90      144.2639   245      226.0000      143.2222   109014   36.63%
    102   104      144.3710   233      226.0000      143.2222   120762   36.63%
    121   123      155.4008   204      226.0000      143.2222   136007   36.63%
    140   142      193.7885   219      226.0000      143.2222   149981   36.63%
    166   162      221.4167    78      226.0000      143.2222   162227   36.63%
Elapsed time = 120.06 sec. (34513.58 ticks, tree = 1.77 MB, solutions = 2)
    172   164      155.4444   429      226.0000      143.2222   173315   36.63%
    182   174      187.1778   349      226.0000      143.2222   177106   36.63%
    191   183      192.7667   145      226.0000      143.2222   187178   36.63%
    199   191      193.5667   228      226.0000      143.2222   204334   36.63%
    204   196      193.0667   230      226.0000      143.2222   208464   36.63%
    215   207      193.4583   176      226.0000      143.2222   213476   36.63%
    227   217      204.0500   146      226.0000      143.2222   220484   36.63%
    240   226      190.4444   173      226.0000      143.2222   239943   36.63%
    252   238      206.2833   311      226.0000      143.2222   252541   36.63%
    254   240      206.2833   412      226.0000      143.2222   255516   36.63%
Elapsed time = 155.55 sec. (45108.49 ticks, tree = 3.46 MB, solutions = 2)
    259   245      206.2833   385      226.0000      143.2222   258152   36.63%
    272   258      211.4417   220      226.0000      143.2222   265350   36.63%
    295   273        cutoff            226.0000      143.2222   274693   36.63%
    311   287      211.0000   173      226.0000      143.2222   289956   36.63%
    326   302      211.4870   192      226.0000      143.2222   305176   36.63%
    347   323      224.5611   108      226.0000      143.2222   315065   36.63%
    367   339      211.0000   127      226.0000      143.2222   334168   36.63%
    389   361      222.5667   125      226.0000      143.2222   351017   36.63%
    410   382      224.3333    64      226.0000      143.2222   367197   36.63%
    428   396      186.6867   278      226.0000      143.2222   386396   36.63%
Elapsed time = 192.20 sec. (54980.25 ticks, tree = 5.36 MB, solutions = 2)
*   440+  395                          225.0000      143.2222            36.35%
    441   398      221.0000    86      225.0000      143.2222   398168   36.35%
    448   405      221.2000   138      225.0000      143.2222   406867   36.35%
    458   415      222.2000   133      225.0000      143.2222   413002   36.35%
    473   425      143.2222   277      225.0000      143.2222   415960   36.35%
    483   435      213.5000   215      225.0000      143.2222   419811   36.35%
    500   452      222.0000   139      225.0000      143.2222   430087   36.35%
    522   472        cutoff            225.0000      143.2222   449706   36.35%
    538   486      217.6667   166      225.0000      143.2222   467650   36.35%
    540   488      221.0000   136      225.0000      143.2222   467847   36.35%
    551   499      155.4444   177      225.0000      143.2222   470336   36.35%
Elapsed time = 235.94 sec. (67379.48 ticks, tree = 8.25 MB, solutions = 3)
    552   500      221.0000   105      225.0000      221.0000   480982    1.78%
    553   499      221.0000   216      225.0000      221.0000   484464    1.78%
    556   500      221.0000   314      225.0000      221.0000   487288    1.78%
    558   501      221.0000   364      225.0000      221.0000   487552    1.78%
    561   503      221.0000   401      225.0000      221.0000   489701    1.78%
    562   503      221.0000   493      225.0000      221.0000   492440    1.78%
    564   505      221.0000   743      225.0000      221.0000   493558    1.78%
    565   506      221.0000   440      225.0000      221.0000   494508    1.78%
    566   506      221.0000   671      225.0000      221.0000   497964    1.78%
    567   507      221.0000   752      225.0000      221.0000   500167    1.78%
Elapsed time = 360.63 sec. (104778.22 ticks, tree = 8.57 MB, solutions = 3)
    568   508      221.0000   620      225.0000      221.0000   503421    1.78%
    570   510      221.0000   729      225.0000      221.0000   505322    1.78%
    572   512      221.0000   678      225.0000      221.0000   506381    1.78%
    574   513      221.0000   666      225.0000      221.0000   507169    1.78%
    576   515      221.0000   635      225.0000      221.0000   509900    1.78%
    578   515      221.0000   628      225.0000      221.0000   511993    1.78%
    580   515      221.0000   629      225.0000      221.0000   514761    1.78%
    583   517      221.0000   689      225.0000      221.0000   516631    1.78%
    586   519      221.0000   667      225.0000      221.0000   517533    1.78%
    589   520      222.0000   683      225.0000      221.0000   518699    1.78%
Elapsed time = 410.73 sec. (119782.88 ticks, tree = 9.60 MB, solutions = 3)
    592   523      222.0000   708      225.0000      221.0000   519545    1.78%
    596   510      223.0000   706      225.0000      221.0000   520413    1.78%
    600   498      223.0000   670      225.0000      221.0000   521097    1.78%
    602   499      223.0000   633      225.0000      221.0000   521618    1.78%
    605   500      223.0000   642      225.0000      221.0000   522691    1.78%
    609   500      224.0000   655      225.0000      221.0000   523425    1.78%
    613   489      224.0000   579      225.0000      221.0000   524639    1.78%
    617   481      224.0000   572      225.0000      221.0000   526234    1.78%
    621   483      224.0000   526      225.0000      221.0000   527903    1.78%
    625   484      224.0000   485      225.0000      221.0000   529426    1.78%
Elapsed time = 456.81 sec. (132826.56 ticks, tree = 9.85 MB, solutions = 3)
    629   486      224.0000   434      225.0000      221.0000   530623    1.78%
    633   489      224.0000   419      225.0000      221.0000   531819    1.78%
    639   493      224.0000   378      225.0000      221.0000   533116    1.78%
    647   488      224.0000   344      225.0000      221.0000   534490    1.78%
    652   488      224.0000   290      225.0000      221.0000   535482    1.78%
    658   478      221.0000    51      225.0000      221.0000   539982    1.78%
    660   480      221.0000   166      225.0000      221.0000   545539    1.78%
    663   481      221.0000   271      225.0000      221.0000   551432    1.78%
    669   479      221.0000   188      225.0000      221.0000   553088    1.78%
    676   483      221.0000   245      225.0000      221.0000   561383    1.78%
Elapsed time = 496.01 sec. (143965.43 ticks, tree = 11.23 MB, solutions = 3)
    685   475      222.0000   162      225.0000      221.0000   572631    1.78%
    690   479      222.0000    71      225.0000      221.0000   583538    1.78%
    695   482      222.0000   142      225.0000      221.0000   588123    1.78%
    698   484      222.0000   148      225.0000      221.0000   594915    1.78%
    703   487      222.0000    96      225.0000      221.0000   601015    1.78%
    707   490      222.0000   135      225.0000      221.0000   608391    1.78%
    712   492      222.0000    82      225.0000      221.0000   612571    1.78%
    720   498      222.2500    42      225.0000      221.0000   619853    1.78%
*   722+  328                          223.0000      221.0000             0.90%
    729   325    infeasible            223.0000      221.0000   627159    0.90%
    776   325      222.0000    87      223.0000      221.0000   643896    0.90%
Elapsed time = 539.47 sec. (158228.33 ticks, tree = 9.25 MB, solutions = 4)
    802   327      222.0000    97      223.0000      221.0000   675541    0.90%
    862   335      221.0000    93      223.0000      221.0000   691374    0.90%
    872   340      221.0000   210      223.0000      221.0000   708476    0.90%
    899   341      222.0000    22      223.0000      221.0000   735138    0.90%
*   900   147      integral     0      222.0000      221.0000   737190    0.45%
*   900   114      integral     0      222.0000      221.0000   737190    0.45%
    925   122      221.0000    66      222.0000      221.0000   755902    0.45%
    987   127      221.0000    70      222.0000      221.0000   777105    0.45%
   1071   156      221.0000    42      222.0000      221.0000   798799    0.45%
   1179   160      221.0000    72      222.0000      221.0000   826880    0.45%
   1239   153      221.0000    86      222.0000      221.0000   864081    0.45%
Elapsed time = 650.01 sec. (193728.35 ticks, tree = 7.15 MB, solutions = 5)
   1306   133      221.0000    83      222.0000      221.0000   908948    0.45%
   1371   119    infeasible            222.0000      221.0000   943784    0.45%
   1420    99      221.0000    91      222.0000      221.0000   977841    0.45%
   1489    76      221.0000   222      222.0000      221.0000  1009219    0.45%
   1519    74    infeasible            222.0000      221.0000  1030597    0.45%
   1553    70      221.0000   120      222.0000      221.0000  1061499    0.45%
   1587    66      221.0000   137      222.0000      221.0000  1092065    0.45%
   1612    65      221.0000   235      222.0000      221.0000  1121568    0.45%
   1663    54      221.0000   164      222.0000      221.0000  1146528    0.45%
   1711    45      221.0000   196      222.0000      221.0000  1177660    0.45%
Elapsed time = 1460.20 sec. (233744.61 ticks, tree = 2.17 MB, solutions = 5)
   1763    41      221.0000   165      222.0000      221.0000  1200030    0.45%
   1809    31      221.0000   402      222.0000      221.0000  1225461    0.45%
   1818    30      221.0000   619      222.0000      221.0000  1238363    0.45%
   1832    30      221.0000   445      222.0000      221.0000  1244974    0.45%
   1858    32      221.0000   502      222.0000      221.0000  1252878    0.45%
   1891    33      221.0000   499      222.0000      221.0000  1261807    0.45%
   1926    31      221.0000   522      222.0000      221.0000  1272479    0.45%
   1952    27      221.0000   629      222.0000      221.0000  1283402    0.45%
   1975    28      221.0000   653      222.0000      221.0000  1289317    0.45%
   1997    28      221.0000   662      222.0000      221.0000  1295733    0.45%
Elapsed time = 1592.55 sec. (275229.43 ticks, tree = 1.32 MB, solutions = 5)
   2026    25      221.0000   680      222.0000      221.0000  1304454    0.45%
   2055    24      221.0000   639      222.0000      221.0000  1310468    0.45%
   2090    17      221.0000   657      222.0000      221.0000  1318530    0.45%
   2116    15    infeasible            222.0000      221.0000  1323120    0.45%
   2140    11      221.0000   694      222.0000      221.0000  1332502    0.45%
   2161    18      221.0000   680      222.0000      221.0000  1337583    0.45%
   2190    21      221.0000   649      222.0000      221.0000  1342835    0.45%
   2222    19      221.0000   641      222.0000      221.0000  1349299    0.45%
   2245    20      221.0000   674      222.0000      221.0000  1353584    0.45%
   2282    13      221.0000   722      222.0000      221.0000  1362648    0.45%
Elapsed time = 1708.61 sec. (314734.47 ticks, tree = 0.56 MB, solutions = 5)
   2323    14      221.0000   690      222.0000      221.0000  1368663    0.45%
   2362    11      221.0000   717      222.0000      221.0000  1374905    0.45%
   2393     6      221.0000   507      222.0000      221.0000  1384365    0.45%
   2430     5      221.0000   573      222.0000      221.0000  1393890    0.45%

Clique cuts applied:  50
Mixed integer rounding cuts applied:  1
Zero-half cuts applied:  21
Lift and project cuts applied:  1
Gomory fractional cuts applied:  63

Root node processing (before b&c):
  Real time             =   60.78 sec. (17973.17 ticks)
Sequential b&c:
  Real time             = 1694.06 sec. (312529.97 ticks)
                          ------------
Total (root+branch&cut) = 1754.84 sec. (330503.14 ticks)

Solution pool: 5 solutions saved.

MIP - Integer optimal solution:  Objective = 2.2200000000e+002
Solution time = 1754.86 sec.  Iterations = 1393896  Nodes = 2436
Deterministic time = 330503.19 ticks  (188.34 ticks/sec)


Incumbent solution written to file 'Casey-1o5.sol'.
